NAME : X-n548-k50
COMMENT : "Generated by Uchoa, Pecin, Pessoa, Poggi, Subramanian, and Vidal (2013)"
TYPE : CVRP
DIMENSION : 548
EDGE_WEIGHT_TYPE : EUC_2D
CAPACITY : 11
NODE_COORD_SECTION
1 0 0
2 221 542
3 320 456
4 576 827
5 679 994
6 371 461
7 961 844
8 986 379
9 175 540
10 126 517
11 329 626
12 477 890
13 191 356
14 584 917
15 308 653
16 0 7
17 273 302
18 672 381
19 235 415
20 583 149
21 672 124
22 644 646
23 400 544
24 832 999
25 842 964
26 582 965
27 544 311
28 429 2
29 939 849
30 898 605
31 363 130
32 639 874
33 323 201
34 829 350
35 7 53
36 801 92
37 57 330
38 943 0
39 579 275
40 833 402
41 408 940
42 635 871
43 631 630
44 733 313
45 344 619
46 628 291
47 674 92
48 74 602
49 38 354
50 473 107
51 668 279
52 510 811
53 366 16
54 49 182
55 528 946
56 271 745
57 405 872
58 65 893
59 622 488
60 668 978
61 939 73
62 556 632
63 270 446
64 586 348
65 951 167
66 385 308
67 247 997
68 992 460
69 128 590
70 746 847
71 279 459
72 428 183
73 364 167
74 656 687
75 547 792
76 517 152
77 252 618
78 464 284
79 184 96
80 457 269
81 590 47
82 348 609
83 777 112
84 528 198
85 877 457
86 812 650
87 864 723
88 584 875
89 817 233
90 186 909
91 439 447
92 560 994
93 818 658
94 134 903
95 447 951
96 969 519
97 488 401
98 142 666
99 287 534
100 399 181
101 141 22
102 29 248
103 313 643
104 20 974
105 294 475
106 439 214
107 327 361
108 79 657
109 165 601
110 345 144
111 90 914
112 400 256
113 177 633
114 549 135
115 812 166
116 887 565
117 455 695
118 180 298
119 658 126
120 18 638
121 327 299
122 195 261
123 245 439
124 355 299
125 827 854
126 881 666
127 144 893
128 34 637
129 187 150
130 350 673
131 380 917
132 271 505
133 347 879
134 45 456
135 930 78
136 860 22
137 448 112
138 236 704
139 222 587
140 670 76
141 333 821
142 521 123
143 642 795
144 152 816
145 50 360
146 325 936
147 24 690
148 836 158
149 351 981
150 405 377
151 159 405
152 825 285
153 187 320
154 342 200
155 290 713
156 304 144
157 216 909
158 46 173
159 613 524
160 35 950
161 298 667
162 257 579
163 775 393
164 860 681
165 996 407
166 42 719
167 379 14
168 195 581
169 75 328
170 295 405
171 481 721
172 539 661
173 6 525
174 239 471
175 88 989
176 965 196
177 460 479
178 927 260
179 663 933
180 626 229
181 814 564
182 737 136
183 620 811
184 253 65
185 645 544
186 877 977
187 825 518
188 656 780
189 235 74
190 881 673
191 101 93
192 221 710
193 69 200
194 115 635
195 721 215
196 414 959
197 336 858
198 270 287
199 912 701
200 278 898
201 426 373
202 867 569
203 354 11
204 937 660
205 434 965
206 753 436
207 681 746
208 86 648
209 656 239
210 604 359
211 979 146
212 507 27
213 94 695
214 424 827
215 287 592
216 554 230
217 952 222
218 48 840
219 99 106
220 661 456
221 133 601
222 635 416
223 860 852
224 842 165
225 752 0
226 173 90
227 469 632
228 184 590
229 619 482
230 981 411
231 778 389
232 359 222
233 751 498
234 201 444
235 91 710
236 111 324
237 867 389
238 309 269
239 669 317
240 768 421
241 889 891
242 605 483
243 221 579
244 729 804
245 442 624
246 719 697
247 413 1000
248 977 29
249 356 605
250 107 39
251 362 727
252 570 421
253 162 737
254 557 652
255 139 48
256 145 568
257 596 316
258 681 194
259 268 893
260 420 824
261 94 529
262 422 341
263 226 328
264 687 807
265 299 951
266 549 281
267 944 64
268 316 904
269 554 49
270 160 221
271 302 952
272 258 765
273 406 684
274 182 881
275 641 481
276 541 807
277 107 602
278 870 999
279 247 282
280 771 712
281 109 942
282 305 827
283 865 629
284 632 928
285 571 734
286 899 632
287 189 934
288 385 166
289 851 399
290 890 198
291 370 248
292 372 910
293 11 248
294 845 326
295 508 769
296 511 900
297 320 984
298 158 330
299 159 327
300 798 648
301 746 195
302 555 541
303 832 900
304 809 931
305 460 869
306 585 804
307 487 102
308 194 288
309 340 877
310 127 981
311 39 692
312 187 528
313 462 482
314 890 450
315 857 64
316 96 223
317 610 842
318 910 604
319 260 757
320 809 211
321 767 499
322 48 352
323 23 950
324 289 98
325 622 891
326 499 618
327 873 960
328 82 752
329 65 845
330 281 842
331 990 747
332 809 808
333 693 76
334 744 478
335 506 411
336 668 167
337 301 696
338 61 500
339 9 695
340 939 496
341 390 699
342 741 894
343 39 477
344 476 728
345 663 477
346 112 160
347 588 281
348 215 559
349 528 309
350 839 820
351 601 769
352 668 953
353 594 865
354 407 905
355 478 244
356 423 639
357 174 707
358 635 465
359 570 151
360 651 612
361 785 786
362 166 64
363 684 574
364 598 632
365 645 944
366 976 284
367 576 737
368 87 725
369 177 414
370 865 221
371 459 506
372 23 683
373 507 320
374 961 987
375 497 889
376 888 561
377 963 175
378 223 208
379 308 530
380 237 184
381 576 387
382 937 529
383 463 219
384 210 641
385 582 748
386 215 107
387 985 385
388 22 783
389 920 945
390 502 117
391 851 594
392 467 732
393 728 54
394 64 249
395 492 57
396 415 372
397 852 45
398 503 209
399 292 125
400 316 855
401 340 273
402 242 217
403 85 788
404 700 96
405 942 989
406 37 511
407 663 175
408 670 279
409 611 829
410 471 843
411 268 61
412 412 350
413 4 325
414 454 981
415 94 359
416 688 524
417 982 397
418 725 208
419 793 620
420 337 779
421 106 856
422 350 826
423 965 538
424 780 360
425 144 904
426 225 646
427 666 449
428 510 276
429 564 632
430 573 501
431 903 827
432 605 806
433 38 525
434 445 738
435 138 788
436 216 988
437 944 955
438 220 716
439 788 589
440 75 130
441 858 686
442 107 314
443 717 125
444 991 306
445 62 373
446 641 426
447 747 436
448 350 855
449 42 62
450 184 460
451 153 199
452 618 878
453 986 690
454 430 839
455 161 233
456 840 747
457 284 582
458 899 505
459 453 998
460 134 596
461 30 955
462 437 412
463 660 92
464 203 828
465 524 418
466 723 31
467 869 759
468 824 606
469 764 469
470 760 852
471 119 378
472 352 365
473 954 998
474 381 873
475 905 972
476 222 302
477 0 783
478 746 114
479 670 702
480 447 881
481 14 996
482 844 110
483 315 373
484 115 329
485 808 697
486 992 409
487 692 929
488 897 142
489 397 338
490 334 75
491 104 954
492 537 581
493 502 262
494 346 190
495 812 171
496 361 170
497 44 202
498 326 351
499 525 950
500 773 202
501 650 781
502 906 167
503 910 793
504 752 234
505 147 12
506 542 768
507 82 850
508 358 588
509 68 802
510 19 296
511 114 406
512 228 854
513 147 444
514 954 410
515 529 392
516 77 383
517 822 126
518 284 784
519 804 876
520 200 797
521 735 425
522 784 608
523 870 566
524 968 481
525 228 806
526 548 87
527 609 314
528 328 85
529 852 128
530 505 944
531 358 609
532 311 26
533 855 140
534 909 915
535 407 84
536 523 987
537 690 982
538 841 250
539 499 9
540 646 414
541 516 682
542 713 221
543 328 800
544 944 22
545 691 660
546 763 609
547 44 506
548 756 289
PICKUP_AND_DELIVERY_SECTION
1 0 0 1000000000 0 0 0
2 0 0 1000000000 0 0.5923 0.4077
3 0 0 1000000000 0 0.2982 0.7018
4 0 0 1000000000 0 0.3035 0.6965
5 0 0 1000000000 0 0.3169 0.6831
6 0 0 1000000000 0 0.1952 0.8048
7 0 0 1000000000 0 0.1217 0.8783
8 0 0 1000000000 0 0.6156 0.3844
9 0 0 1000000000 0 0.6759 0.3241
10 0 0 1000000000 0 0.7563 0.2437
11 0 0 1000000000 0 0.4744 0.5256
12 0 0 1000000000 0 0.464 0.536
13 0 0 1000000000 0 0.4635 0.5365
14 0 0 1000000000 0 0.3631 0.6369
15 0 0 1000000000 0 0.5283 0.4717
16 0 0 1000000000 0 1 0
17 0 0 1000000000 0 0.09603 0.904
18 0 0 1000000000 0 0.433 0.567
19 0 0 1000000000 0 0.4337 0.5663
20 0 0 1000000000 0 0.7444 0.2556
21 0 0 1000000000 0 0.8155 0.1845
22 0 0 1000000000 0 0.0031 0.9969
23 0 0 1000000000 0 0.2647 0.7353
24 0 0 1000000000 0 0.1672 0.8328
25 0 0 1000000000 0 0.1266 0.8734
26 0 0 1000000000 0 0.3969 0.6031
27 0 0 1000000000 0 0.4283 0.5717
28 0 0 1000000000 0 0.9953 0.00466
29 0 0 1000000000 0 0.09585 0.9042
30 0 0 1000000000 0 0.3263 0.6737
31 0 0 1000000000 0 0.6419 0.3581
32 0 0 1000000000 0 0.2689 0.7311
33 0 0 1000000000 0 0.3777 0.6223
34 0 0 1000000000 0 0.5778 0.4222
35 0 0 1000000000 0 0.8679 0.1321
36 0 0 1000000000 0 0.8851 0.1149
37 0 0 1000000000 0 0.8273 0.1727
38 0 0 1000000000 0 1 0
39 0 0 1000000000 0 0.525 0.475
40 0 0 1000000000 0 0.5174 0.4826
41 0 0 1000000000 0 0.566 0.434
42 0 0 1000000000 0 0.271 0.729
43 0 0 1000000000 0 0.00158 0.9984
44 0 0 1000000000 0 0.573 0.427
45 0 0 1000000000 0 0.4443 0.5557
46 0 0 1000000000 0 0.5366 0.4634
47 0 0 1000000000 0 0.8635 0.1365
48 0 0 1000000000 0 0.8771 0.1229
49 0 0 1000000000 0 0.8927 0.1073
50 0 0 1000000000 0 0.7738 0.2262
51 0 0 1000000000 0 0.5823 0.4177
52 0 0 1000000000 0 0.3711 0.6289
53 0 0 1000000000 0 0.9563 0.04372
54 0 0 1000000000 0 0.7308 0.2692
55 0 0 1000000000 0 0.4419 0.5581
56 0 0 1000000000 0 0.6362 0.3638
57 0 0 1000000000 0 0.5356 0.4644
58 0 0 1000000000 0 0.9272 0.07279
59 0 0 1000000000 0 0.2154 0.7846
60 0 0 1000000000 0 0.317 0.683
61 0 0 1000000000 0 0.9223 0.07774
62 0 0 1000000000 0 0.1203 0.8797
63 0 0 1000000000 0 0.3946 0.6054
64 0 0 1000000000 0 0.4061 0.5939
65 0 0 1000000000 0 0.8244 0.1756
66 0 0 1000000000 0 0.2 0.8
67 0 0 1000000000 0 0.7523 0.2477
68 0 0 1000000000 0 0.5363 0.4637
69 0 0 1000000000 0 0.7831 0.2169
70 0 0 1000000000 0 0.1192 0.8808
71 0 0 1000000000 0 0.3922 0.6078
72 0 0 1000000000 0 0.5724 0.4276
73 0 0 1000000000 0 0.5412 0.4588
74 0 0 1000000000 0 0.04512 0.9549
75 0 0 1000000000 0 0.3093 0.6907
76 0 0 1000000000 0 0.706 0.294
77 0 0 1000000000 0 0.5922 0.4078
78 0 0 1000000000 0 0.3879 0.6121
79 0 0 1000000000 0 0.4783 0.5217
80 0 0 1000000000 0 0.4114 0.5886
81 0 0 1000000000 0 0.9203 0.07966
82 0 0 1000000000 0 0.4286 0.5714
83 0 0 1000000000 0 0.8559 0.1441
84 0 0 1000000000 0 0.625 0.375
85 0 0 1000000000 0 0.4789 0.5211
86 0 0 1000000000 0 0.1995 0.8005
87 0 0 1000000000 0 0.1632 0.8368
88 0 0 1000000000 0 0.3326 0.6674
89 0 0 1000000000 0 0.7148 0.2852
90 0 0 1000000000 0 0.7954 0.2046
91 0 0 1000000000 0 0.0179 0.9821
92 0 0 1000000000 0 0.4366 0.5634
93 0 0 1000000000 0 0.1956 0.8044
94 0 0 1000000000 0 0.8516 0.1484
95 0 0 1000000000 0 0.53 0.47
96 0 0 1000000000 0 0.4644 0.5356
97 0 0 1000000000 0 0.1783 0.8217
98 0 0 1000000000 0 0.7868 0.2132
99 0 0 1000000000 0 0.4625 0.5375
100 0 0 1000000000 0 0.5464 0.4536
101 0 0 1000000000 0 0.844 0.156
102 0 0 1000000000 0 0.8831 0.1169
103 0 0 1000000000 0 0.5132 0.4868
104 0 0 1000000000 0 0.9795 0.02053
105 0 0 1000000000 0 0.3811 0.6189
106 0 0 1000000000 0 0.5125 0.4875
107 0 0 1000000000 0 0.09418 0.9058
108 0 0 1000000000 0 0.8798 0.1202
109 0 0 1000000000 0 0.7255 0.2745
110 0 0 1000000000 0 0.5826 0.4174
111 0 0 1000000000 0 0.9015 0.09847
112 0 0 1000000000 0 0.36 0.64
113 0 0 1000000000 0 0.7204 0.2796
114 0 0 1000000000 0 0.7541 0.2459
115 0 0 1000000000 0 0.7956 0.2044
116 0 0 1000000000 0 0.363 0.637
117 0 0 1000000000 0 0.3453 0.6547
118 0 0 1000000000 0 0.396 0.604
119 0 0 1000000000 0 0.8085 0.1915
120 0 0 1000000000 0 0.9718 0.02821
121 0 0 1000000000 0 0.08563 0.9144
122 0 0 1000000000 0 0.2529 0.7471
123 0 0 1000000000 0 0.4419 0.5581
124 0 0 1000000000 0 0.1577 0.8423
125 0 0 1000000000 0 0.03162 0.9684
126 0 0 1000000000 0 0.244 0.756
127 0 0 1000000000 0 0.8387 0.1613
128 0 0 1000000000 0 0.9466 0.05338
129 0 0 1000000000 0 0.1979 0.8021
130 0 0 1000000000 0 0.4799 0.5201
131 0 0 1000000000 0 0.5856 0.4144
132 0 0 1000000000 0 0.4634 0.5366
133 0 0 1000000000 0 0.6052 0.3948
134 0 0 1000000000 0 0.9013 0.09868
135 0 0 1000000000 0 0.9161 0.08387
136 0 0 1000000000 0 0.9744 0.02558
137 0 0 1000000000 0 0.75 0.25
138 0 0 1000000000 0 0.6648 0.3352
139 0 0 1000000000 0 0.6218 0.3782
140 0 0 1000000000 0 0.8866 0.1134
141 0 0 1000000000 0 0.5944 0.4056
142 0 0 1000000000 0 0.7639 0.2361
143 0 0 1000000000 0 0.1925 0.8075
144 0 0 1000000000 0 0.8137 0.1863
145 0 0 1000000000 0 0.8611 0.1389
146 0 0 1000000000 0 0.6528 0.3472
147 0 0 1000000000 0 0.9652 0.03478
148 0 0 1000000000 0 0.811 0.189
149 0 0 1000000000 0 0.6422 0.3578
150 0 0 1000000000 0 0.06914 0.9309
151 0 0 1000000000 0 0.6074 0.3926
152 0 0 1000000000 0 0.6545 0.3455
153 0 0 1000000000 0 0.4156 0.5844
154 0 0 1000000000 0 0.4152 0.5848
155 0 0 1000000000 0 0.5933 0.4067
156 0 0 1000000000 0 0.5263 0.4737
157 0 0 1000000000 0 0.7624 0.2376
158 0 0 1000000000 0 0.7341 0.2659
159 0 0 1000000000 0 0.1452 0.8548
160 0 0 1000000000 0 0.9632 0.03684
161 0 0 1000000000 0 0.5532 0.4468
162 0 0 1000000000 0 0.5561 0.4439
163 0 0 1000000000 0 0.4929 0.5071
164 0 0 1000000000 0 0.2081 0.7919
165 0 0 1000000000 0 0.5914 0.4086
166 0 0 1000000000 0 0.9416 0.05841
167 0 0 1000000000 0 0.9631 0.03694
168 0 0 1000000000 0 0.6644 0.3356
169 0 0 1000000000 0 0.7713 0.2287
170 0 0 1000000000 0 0.2716 0.7284
171 0 0 1000000000 0 0.3329 0.6671
172 0 0 1000000000 0 0.1846 0.8154
173 0 0 1000000000 0 0.9886 0.01143
174 0 0 1000000000 0 0.4926 0.5074
175 0 0 1000000000 0 0.911 0.08898
176 0 0 1000000000 0 0.7969 0.2031
177 0 0 1000000000 0 0.03967 0.9603
178 0 0 1000000000 0 0.7195 0.2805
179 0 0 1000000000 0 0.2894 0.7106
180 0 0 1000000000 0 0.6342 0.3658
181 0 0 1000000000 0 0.3071 0.6929
182 0 0 1000000000 0 0.8155 0.1845
183 0 0 1000000000 0 0.2355 0.7645
184 0 0 1000000000 0 0.7431 0.2569
185 0 0 1000000000 0 0.1566 0.8434
186 0 0 1000000000 0 0.1024 0.8976
187 0 0 1000000000 0 0.3721 0.6279
188 0 0 1000000000 0 0.159 0.841
189 0 0 1000000000 0 0.6851 0.3149
190 0 0 1000000000 0 0.2361 0.7639
191 0 0 1000000000 0 0.07921 0.9208
192 0 0 1000000000 0 0.6887 0.3113
193 0 0 1000000000 0 0.655 0.345
194 0 0 1000000000 0 0.8189 0.1811
195 0 0 1000000000 0 0.7018 0.2982
196 0 0 1000000000 0 0.5683 0.4317
197 0 0 1000000000 0 0.6084 0.3916
198 0 0 1000000000 0 0.05923 0.9408
199 0 0 1000000000 0 0.2314 0.7686
200 0 0 1000000000 0 0.6904 0.3096
201 0 0 1000000000 0 0.1244 0.8756
202 0 0 1000000000 0 0.3437 0.6563
203 0 0 1000000000 0 0.9689 0.03107
204 0 0 1000000000 0 0.2956 0.7044
205 0 0 1000000000 0 0.5503 0.4497
206 0 0 1000000000 0 0.421 0.579
207 0 0 1000000000 0 0.08713 0.9129
208 0 0 1000000000 0 0.8673 0.1327
209 0 0 1000000000 0 0.6357 0.3643
210 0 0 1000000000 0 0.4056 0.5944
211 0 0 1000000000 0 0.8509 0.1491
212 0 0 1000000000 0 0.9467 0.05325
213 0 0 1000000000 0 0.8647 0.1353
214 0 0 1000000000 0 0.4873 0.5127
215 0 0 1000000000 0 0.5152 0.4848
216 0 0 1000000000 0 0.5848 0.4152
217 0 0 1000000000 0 0.7668 0.2332
218 0 0 1000000000 0 0.9429 0.05714
219 0 0 1000000000 0 0.06604 0.934
220 0 0 1000000000 0 0.3101 0.6899
221 0 0 1000000000 0 0.7787 0.2213
222 0 0 1000000000 0 0.3449 0.6551
223 0 0 1000000000 0 0.0093 0.9907
224 0 0 1000000000 0 0.804 0.196
225 0 0 1000000000 0 1 0
226 0 0 1000000000 0 0.4798 0.5202
227 0 0 1000000000 0 0.2579 0.7421
228 0 0 1000000000 0 0.6881 0.3119
229 0 0 1000000000 0 0.2213 0.7787
230 0 0 1000000000 0 0.581 0.419
231 0 0 1000000000 0 0.5 0.5
232 0 0 1000000000 0 0.3816 0.6184
233 0 0 1000000000 0 0.3369 0.6631
234 0 0 1000000000 0 0.5473 0.4527
235 0 0 1000000000 0 0.8718 0.1282
236 0 0 1000000000 0 0.6574 0.3426
237 0 0 1000000000 0 0.5513 0.4487
238 0 0 1000000000 0 0.1294 0.8706
239 0 0 1000000000 0 0.5262 0.4738
240 0 0 1000000000 0 0.4518 0.5482
241 0 0 1000000000 0 0.00224 0.9978
242 0 0 1000000000 0 0.2017 0.7983
243 0 0 1000000000 0 0.6183 0.3817
244 0 0 1000000000 0 0.09328 0.9067
245 0 0 1000000000 0 0.2917 0.7083
246 0 0 1000000000 0 0.0306 0.9694
247 0 0 1000000000 0 0.587 0.413
248 0 0 1000000000 0 0.9703 0.02968
249 0 0 1000000000 0 0.4116 0.5884
250 0 0 1000000000 0 0.6355 0.3645
251 0 0 1000000000 0 0.5021 0.4979
252 0 0 1000000000 0 0.2614 0.7386
253 0 0 1000000000 0 0.7802 0.2198
254 0 0 1000000000 0 0.1457 0.8543
255 0 0 1000000000 0 0.6547 0.3453
256 0 0 1000000000 0 0.7447 0.2553
257 0 0 1000000000 0 0.4698 0.5302
258 0 0 1000000000 0 0.7151 0.2849
259 0 0 1000000000 0 0.6999 0.3001
260 0 0 1000000000 0 0.4903 0.5097
261 0 0 1000000000 0 0.8223 0.1777
262 0 0 1000000000 0 0.1919 0.8081
263 0 0 1000000000 0 0.311 0.689
264 0 0 1000000000 0 0.1487 0.8513
265 0 0 1000000000 0 0.6856 0.3144
266 0 0 1000000000 0 0.4882 0.5118
267 0 0 1000000000 0 0.9322 0.0678
268 0 0 1000000000 0 0.6504 0.3496
269 0 0 1000000000 0 0.9116 0.08845
270 0 0 1000000000 0 0.276 0.724
271 0 0 1000000000 0 0.6828 0.3172
272 0 0 1000000000 0 0.6627 0.3373
273 0 0 1000000000 0 0.4064 0.5936
274 0 0 1000000000 0 0.7934 0.2066
275 0 0 1000000000 0 0.2496 0.7504
276 0 0 1000000000 0 0.3296 0.6704
277 0 0 1000000000 0 0.8223 0.1777
278 0 0 1000000000 0 0.1291 0.8709
279 0 0 1000000000 0 0.1241 0.8759
280 0 0 1000000000 0 0.07652 0.9235
281 0 0 1000000000 0 0.8843 0.1157
282 0 0 1000000000 0 0.6312 0.3688
283 0 0 1000000000 0 0.2728 0.7272
284 0 0 1000000000 0 0.319 0.681
285 0 0 1000000000 0 0.2221 0.7779
286 0 0 1000000000 0 0.297 0.703
287 0 0 1000000000 0 0.7976 0.2024
288 0 0 1000000000 0 0.5688 0.4312
289 0 0 1000000000 0 0.5311 0.4689
290 0 0 1000000000 0 0.7775 0.2225
291 0 0 1000000000 0 0.3297 0.6703
292 0 0 1000000000 0 0.5912 0.4088
293 0 0 1000000000 0 0.9556 0.04435
294 0 0 1000000000 0 0.6142 0.3858
295 0 0 1000000000 0 0.3394 0.6606
296 0 0 1000000000 0 0.4322 0.5678
297 0 0 1000000000 0 0.6748 0.3252
298 0 0 1000000000 0 0.5212 0.4788
299 0 0 1000000000 0 0.5138 0.4862
300 0 0 1000000000 0 0.188 0.812
301 0 0 1000000000 0 0.7386 0.2614
302 0 0 1000000000 0 0.02523 0.9748
303 0 0 1000000000 0 0.07556 0.9244
304 0 0 1000000000 0 0.131 0.869
305 0 0 1000000000 0 0.4707 0.5293
306 0 0 1000000000 0 0.2724 0.7276
307 0 0 1000000000 0 0.7906 0.2094
308 0 0 1000000000 0 0.3264 0.6736
309 0 0 1000000000 0 0.6123 0.3877
310 0 0 1000000000 0 0.8705 0.1295
311 0 0 1000000000 0 0.9436 0.05636
312 0 0 1000000000 0 0.6458 0.3542
313 0 0 1000000000 0 0.04149 0.9585
314 0 0 1000000000 0 0.4944 0.5056
315 0 0 1000000000 0 0.9253 0.07468
316 0 0 1000000000 0 0.5695 0.4305
317 0 0 1000000000 0 0.2755 0.7245
318 0 0 1000000000 0 0.3363 0.6637
319 0 0 1000000000 0 0.6565 0.3435
320 0 0 1000000000 0 0.7392 0.2608
321 0 0 1000000000 0 0.3494 0.6506
322 0 0 1000000000 0 0.8636 0.1364
323 0 0 1000000000 0 0.9758 0.02421
324 0 0 1000000000 0 0.6609 0.3391
325 0 0 1000000000 0 0.3019 0.6981
326 0 0 1000000000 0 0.1926 0.8074
327 0 0 1000000000 0 0.09062 0.9094
328 0 0 1000000000 0 0.891 0.109
329 0 0 1000000000 0 0.9231 0.07692
330 0 0 1000000000 0 0.6663 0.3337
331 0 0 1000000000 0 0.2455 0.7545
332 0 0 1000000000 0 0.00124 0.9988
333 0 0 1000000000 0 0.8903 0.1097
334 0 0 1000000000 0 0.3575 0.6425
335 0 0 1000000000 0 0.1877 0.8123
336 0 0 1000000000 0 0.75 0.25
337 0 0 1000000000 0 0.5675 0.4325
338 0 0 1000000000 0 0.878 0.122
339 0 0 1000000000 0 0.9871 0.01295
340 0 0 1000000000 0 0.4718 0.5282
341 0 0 1000000000 0 0.4421 0.5579
342 0 0 1000000000 0 0.1711 0.8289
343 0 0 1000000000 0 0.9182 0.08176
344 0 0 1000000000 0 0.3462 0.6538
345 0 0 1000000000 0 0.2805 0.7195
346 0 0 1000000000 0 0.3 0.7
347 0 0 1000000000 0 0.5221 0.4779
348 0 0 1000000000 0 0.6154 0.3846
349 0 0 1000000000 0 0.4148 0.5852
350 0 0 1000000000 0 0.02265 0.9774
351 0 0 1000000000 0 0.2185 0.7815
352 0 0 1000000000 0 0.2991 0.7009
353 0 0 1000000000 0 0.3133 0.6867
354 0 0 1000000000 0 0.5503 0.4497
355 0 0 1000000000 0 0.4895 0.5105
356 0 0 1000000000 0 0.338 0.662
357 0 0 1000000000 0 0.7539 0.2461
358 0 0 1000000000 0 0.2677 0.7323
359 0 0 1000000000 0 0.7351 0.2649
360 0 0 1000000000 0 0.05991 0.9401
361 0 0 1000000000 0 0.00127 0.9987
362 0 0 1000000000 0 0.6145 0.3855
363 0 0 1000000000 0 0.1608 0.8392
364 0 0 1000000000 0 0.0538 0.9462
365 0 0 1000000000 0 0.3167 0.6833
366 0 0 1000000000 0 0.709 0.291
367 0 0 1000000000 0 0.2185 0.7815
368 0 0 1000000000 0 0.88 0.12
369 0 0 1000000000 0 0.5725 0.4275
370 0 0 1000000000 0 0.7445 0.2555
371 0 0 1000000000 0 0.09289 0.9071
372 0 0 1000000000 0 0.9663 0.03367
373 0 0 1000000000 0 0.3688 0.6312
374 0 0 1000000000 0 0.02634 0.9737
375 0 0 1000000000 0 0.4409 0.5591
376 0 0 1000000000 0 0.3682 0.6318
377 0 0 1000000000 0 0.8183 0.1817
378 0 0 1000000000 0 0.06726 0.9327
379 0 0 1000000000 0 0.4189 0.5811
380 0 0 1000000000 0 0.2236 0.7764
381 0 0 1000000000 0 0.3281 0.6719
382 0 0 1000000000 0 0.4354 0.5646
383 0 0 1000000000 0 0.527 0.473
384 0 0 1000000000 0 0.6724 0.3276
385 0 0 1000000000 0 0.2219 0.7781
386 0 0 1000000000 0 0.5023 0.4977
387 0 0 1000000000 0 0.6091 0.3909
388 0 0 1000000000 0 0.9719 0.0281
389 0 0 1000000000 0 0.02646 0.9735
390 0 0 1000000000 0 0.7669 0.2331
391 0 0 1000000000 0 0.302 0.698
392 0 0 1000000000 0 0.362 0.638
393 0 0 1000000000 0 0.9258 0.07418
394 0 0 1000000000 0 0.743 0.257
395 0 0 1000000000 0 0.8841 0.1159
396 0 0 1000000000 0 0.1036 0.8964
397 0 0 1000000000 0 0.9472 0.05282
398 0 0 1000000000 0 0.5845 0.4155
399 0 0 1000000000 0 0.5719 0.4281
400 0 0 1000000000 0 0.6304 0.3696
401 0 0 1000000000 0 0.1971 0.8029
402 0 0 1000000000 0 0.1033 0.8967
403 0 0 1000000000 0 0.8921 0.1079
404 0 0 1000000000 0 0.8629 0.1371
405 0 0 1000000000 0 0.04752 0.9525
406 0 0 1000000000 0 0.9276 0.07241
407 0 0 1000000000 0 0.736 0.264
408 0 0 1000000000 0 0.5836 0.4164
409 0 0 1000000000 0 0.263 0.737
410 0 0 1000000000 0 0.4413 0.5587
411 0 0 1000000000 0 0.7724 0.2276
412 0 0 1000000000 0 0.1505 0.8495
413 0 0 1000000000 0 0.9877 0.01231
414 0 0 1000000000 0 0.5372 0.4628
415 0 0 1000000000 0 0.7382 0.2618
416 0 0 1000000000 0 0.2384 0.7616
417 0 0 1000000000 0 0.5957 0.4043
418 0 0 1000000000 0 0.7131 0.2869
419 0 0 1000000000 0 0.2182 0.7818
420 0 0 1000000000 0 0.5674 0.4326
421 0 0 1000000000 0 0.8762 0.1238
422 0 0 1000000000 0 0.5763 0.4237
423 0 0 1000000000 0 0.4425 0.5575
424 0 0 1000000000 0 0.5385 0.4615
425 0 0 1000000000 0 0.8407 0.1593
426 0 0 1000000000 0 0.6517 0.3483
427 0 0 1000000000 0 0.3258 0.6742
428 0 0 1000000000 0 0.4588 0.5412
429 0 0 1000000000 0 0.1076 0.8924
430 0 0 1000000000 0 0.1257 0.8743
431 0 0 1000000000 0 0.08416 0.9158
432 0 0 1000000000 0 0.2494 0.7506
433 0 0 1000000000 0 0.9276 0.07238
434 0 0 1000000000 0 0.397 0.603
435 0 0 1000000000 0 0.8249 0.1751
436 0 0 1000000000 0 0.7814 0.2186
437 0 0 1000000000 0 0.01152 0.9885
438 0 0 1000000000 0 0.6927 0.3073
439 0 0 1000000000 0 0.2525 0.7475
440 0 0 1000000000 0 0.4231 0.5769
441 0 0 1000000000 0 0.2005 0.7995
442 0 0 1000000000 0 0.6592 0.3408
443 0 0 1000000000 0 0.8257 0.1743
444 0 0 1000000000 0 0.6912 0.3088
445 0 0 1000000000 0 0.8338 0.1662
446 0 0 1000000000 0 0.3354 0.6646
447 0 0 1000000000 0 0.4163 0.5837
448 0 0 1000000000 0 0.5906 0.4094
449 0 0 1000000000 0 0.3226 0.6774
450 0 0 1000000000 0 0.6 0.4
451 0 0 1000000000 0 0.2312 0.7688
452 0 0 1000000000 0 0.2961 0.7039
453 0 0 1000000000 0 0.3002 0.6998
454 0 0 1000000000 0 0.4875 0.5125
455 0 0 1000000000 0 0.309 0.691
456 0 0 1000000000 0 0.1107 0.8893
457 0 0 1000000000 0 0.512 0.488
458 0 0 1000000000 0 0.4383 0.5617
459 0 0 1000000000 0 0.5461 0.4539
460 0 0 1000000000 0 0.7752 0.2248
461 0 0 1000000000 0 0.9686 0.03141
462 0 0 1000000000 0 0.05721 0.9428
463 0 0 1000000000 0 0.8606 0.1394
464 0 0 1000000000 0 0.7548 0.2452
465 0 0 1000000000 0 0.2023 0.7977
466 0 0 1000000000 0 0.9571 0.04288
467 0 0 1000000000 0 0.1266 0.8734
468 0 0 1000000000 0 0.2646 0.7354
469 0 0 1000000000 0 0.3861 0.6139
470 0 0 1000000000 0 0.108 0.892
471 0 0 1000000000 0 0.6852 0.3148
472 0 0 1000000000 0 0.03562 0.9644
473 0 0 1000000000 0 0.04409 0.9559
474 0 0 1000000000 0 0.5636 0.4364
475 0 0 1000000000 0 0.06893 0.9311
476 0 0 1000000000 0 0.2649 0.7351
477 0 0 1000000000 0 1 0
478 0 0 1000000000 0 0.8472 0.1528
479 0 0 1000000000 0 0.04558 0.9544
480 0 0 1000000000 0 0.4926 0.5074
481 0 0 1000000000 0 0.9859 0.01406
482 0 0 1000000000 0 0.8697 0.1303
483 0 0 1000000000 0 0.1555 0.8445
484 0 0 1000000000 0 0.6505 0.3495
485 0 0 1000000000 0 0.1374 0.8626
486 0 0 1000000000 0 0.5877 0.4123
487 0 0 1000000000 0 0.2551 0.7449
488 0 0 1000000000 0 0.8417 0.1583
489 0 0 1000000000 0 0.1486 0.8514
490 0 0 1000000000 0 0.7754 0.2246
491 0 0 1000000000 0 0.891 0.109
492 0 0 1000000000 0 0.07573 0.9243
493 0 0 1000000000 0 0.4781 0.5219
494 0 0 1000000000 0 0.4509 0.5491
495 0 0 1000000000 0 0.7894 0.2106
496 0 0 1000000000 0 0.5291 0.4709
497 0 0 1000000000 0 0.7822 0.2178
498 0 0 1000000000 0 0.07123 0.9288
499 0 0 1000000000 0 0.4474 0.5526
500 0 0 1000000000 0 0.7387 0.2613
501 0 0 1000000000 0 0.1677 0.8323
502 0 0 1000000000 0 0.8157 0.1843
503 0 0 1000000000 0 0.1286 0.8714
504 0 0 1000000000 0 0.6888 0.3112
505 0 0 1000000000 0 0.9184 0.08163
506 0 0 1000000000 0 0.2943 0.7057
507 0 0 1000000000 0 0.9035 0.09647
508 0 0 1000000000 0 0.3912 0.6088
509 0 0 1000000000 0 0.9152 0.08479
510 0 0 1000000000 0 0.9358 0.06419
511 0 0 1000000000 0 0.7192 0.2808
512 0 0 1000000000 0 0.733 0.267
513 0 0 1000000000 0 0.6689 0.3311
514 0 0 1000000000 0 0.5702 0.4298
515 0 0 1000000000 0 0.259 0.741
516 0 0 1000000000 0 0.799 0.201
517 0 0 1000000000 0 0.8467 0.1533
518 0 0 1000000000 0 0.6378 0.3622
519 0 0 1000000000 0 0.08219 0.9178
520 0 0 1000000000 0 0.7491 0.2509
521 0 0 1000000000 0 0.4218 0.5782
522 0 0 1000000000 0 0.2245 0.7755
523 0 0 1000000000 0 0.3494 0.6506
524 0 0 1000000000 0 0.5031 0.4969
525 0 0 1000000000 0 0.7171 0.2829
526 0 0 1000000000 0 0.8412 0.1588
527 0 0 1000000000 0 0.4844 0.5156
528 0 0 1000000000 0 0.7409 0.2591
529 0 0 1000000000 0 0.8498 0.1502
530 0 0 1000000000 0 0.465 0.535
531 0 0 1000000000 0 0.4122 0.5878
532 0 0 1000000000 0 0.9164 0.0836
533 0 0 1000000000 0 0.8363 0.1637
534 0 0 1000000000 0 0.00656 0.9934
535 0 0 1000000000 0 0.7936 0.2064
536 0 0 1000000000 0 0.4701 0.5299
537 0 0 1000000000 0 0.2974 0.7026
538 0 0 1000000000 0 0.7027 0.2973
539 0 0 1000000000 0 0.982 0.01804
540 0 0 1000000000 0 0.3591 0.6409
541 0 0 1000000000 0 0.2434 0.7566
542 0 0 1000000000 0 0.69 0.31
543 0 0 1000000000 0 0.59 0.41
544 0 0 1000000000 0 0.9767 0.02331
545 0 0 1000000000 0 0.04486 0.9551
546 0 0 1000000000 0 0.2018 0.7982
547 0 0 1000000000 0 0.913 0.08696
548 0 0 1000000000 0 0.6177 0.3823
